(declare-fun temp559_1 () (_ BitVec 64))
(declare-fun ARGNAME_use_input_stats_NAMEEND () (_ BitVec 64))
(declare-fun temp559_2 () (_ BitVec 64))
(declare-fun var985537 () (_ BitVec 64))
(declare-fun var985545 () (_ BitVec 64))
(declare-fun temp559_3 () (_ BitVec 64))
(declare-fun temp559_4 () (_ BitVec 64))
(declare-fun ARGNAME_input_NAMEEND_DIMSIZE
             ()
             (Array (_ BitVec 64) (_ BitVec 64)))
(declare-fun temp559_5 () (_ BitVec 64))
(declare-fun temp559_6 () (_ BitVec 64))
(declare-fun temp559_7 () (_ BitVec 64))
(declare-fun temp559_8 () (_ BitVec 64))
(declare-fun temp559_9 () (_ BitVec 64))
(declare-fun temp559_10 () (_ BitVec 64))
(declare-fun temp559_11 () (_ BitVec 64))
(declare-fun temp559_12 () (_ BitVec 64))
(declare-fun temp559_13 () (_ BitVec 64))
(declare-fun temp559_14 () (_ BitVec 64))
(declare-fun temp559_15 () (_ BitVec 64))
(declare-fun temp559_16 () (_ BitVec 64))
(declare-fun temp559_17 () (_ BitVec 64))
(declare-fun temp559_18 () (_ BitVec 64))
(declare-fun temp559_19 () (_ BitVec 64))
(declare-fun temp559_20 () (_ BitVec 64))
(declare-fun temp559_21 () (_ BitVec 64))
(declare-fun temp559_22 () (_ BitVec 64))
(declare-fun temp559_23 () (_ BitVec 64))
(declare-fun ARGNAME_input_NAMEEND_DIM () (_ BitVec 64))
(declare-fun temp559_24 () (_ BitVec 64))
(declare-fun temp559_25 () (_ BitVec 64))
(declare-fun temp559_26 () (_ BitVec 64))
(declare-fun temp559_27 () (_ BitVec 64))
(declare-fun temp559_28 () (_ BitVec 64))
(declare-fun var2039185 () (_ BitVec 64))
(declare-fun temp559_29 () (_ BitVec 64))
(declare-fun var2235793 () (_ BitVec 64))
(declare-fun temp559_30 () (_ BitVec 64))
(declare-fun temp559_31 () (_ BitVec 64))
(declare-fun temp559_32 () (_ BitVec 64))
(declare-fun temp559_33 () (_ BitVec 64))
(declare-fun temp559_34 () (_ BitVec 64))
(declare-fun var2753483 () (_ BitVec 64))
(declare-fun temp559_36 () (_ BitVec 64))
(declare-fun temp559_35 () (_ BitVec 64))
(declare-fun temp559_38 () (_ BitVec 64))
(declare-fun temp559_37 () (_ BitVec 64))
(declare-fun temp559_39 () (_ BitVec 64))
(declare-fun temp559_40 () (_ BitVec 64))
(declare-fun temp559_42 () (_ BitVec 64))
(declare-fun temp559_41 () (_ BitVec 64))
(declare-fun temp559_44 () (_ BitVec 64))
(declare-fun temp559_43 () (_ BitVec 64))
(declare-fun temp559_45 () (_ BitVec 64))
(declare-fun var7080385 () (_ BitVec 64))
(declare-fun var7080393 () (_ BitVec 64))
(assert (= temp559_1 #x0000000000000001))
(assert (= ARGNAME_use_input_stats_NAMEEND temp559_1))
(assert (= temp559_2 #x0000000000000002))
(assert (= var985537 temp559_2))
(assert (= var985545 var985537))
(assert (= temp559_3 #x0000000000000000))
(assert (= temp559_4 temp559_3))
(assert (= temp559_5 (select ARGNAME_input_NAMEEND_DIMSIZE temp559_4)))
(assert (= temp559_6 #x0000000000000001))
(assert (= temp559_7 temp559_6))
(assert (= temp559_8 (select ARGNAME_input_NAMEEND_DIMSIZE temp559_7)))
(assert (= temp559_9 #x0000000000000002))
(assert (= temp559_10 temp559_9))
(assert (= temp559_11 (select ARGNAME_input_NAMEEND_DIMSIZE temp559_10)))
(assert (= temp559_12 #x0000000000000003))
(assert (= temp559_13 temp559_12))
(assert (= temp559_14 (select ARGNAME_input_NAMEEND_DIMSIZE temp559_13)))
(assert (= temp559_15 #x0000000000000004))
(assert (= temp559_16 temp559_15))
(assert (= temp559_17 (select ARGNAME_input_NAMEEND_DIMSIZE temp559_16)))
(assert (= temp559_18 #x0000000000000005))
(assert (= temp559_19 temp559_18))
(assert (= temp559_20 (select ARGNAME_input_NAMEEND_DIMSIZE temp559_19)))
(assert (= temp559_21 #x0000000000000000))
(assert (= temp559_22 temp559_21))
(assert (= temp559_23 (select ARGNAME_input_NAMEEND_DIMSIZE temp559_22)))
(assert (bvsgt ARGNAME_input_NAMEEND_DIM temp559_21))
(assert (bvsge temp559_21 (bvneg ARGNAME_input_NAMEEND_DIM)))
(assert (= temp559_24 #x0000000000000001))
(assert (= temp559_25 temp559_24))
(assert (= temp559_26 (select ARGNAME_input_NAMEEND_DIMSIZE temp559_25)))
(assert (bvsgt ARGNAME_input_NAMEEND_DIM temp559_24))
(assert (bvsge temp559_24 (bvneg ARGNAME_input_NAMEEND_DIM)))
(assert (= temp559_27 temp559_26))
(assert (= temp559_28 #x0000000000000001))
(assert (= var2039185 temp559_28))
(assert (= temp559_29 #x0000000000000000))
(assert (= var2235793 temp559_29))
(assert (= temp559_30 temp559_23))
(assert (= temp559_31 temp559_23))
(assert (= temp559_32 temp559_23))
(assert (= temp559_33 temp559_23))
(assert (= temp559_34 #x0000000000000001))
(assert (= var2753483 temp559_34))
(assert (= temp559_36 #x0000000000000000))
(assert (= temp559_35 temp559_36))
(assert (= temp559_38 #x0000000000000000))
(assert (= temp559_37 temp559_38))
(assert (= temp559_39 temp559_23))
(assert (= temp559_40 temp559_26))
(assert (= temp559_42 #x0000000000000002))
(assert (= temp559_41 temp559_42))
(assert (= temp559_44 #x0000000000000000))
(assert (= temp559_43 temp559_44))
(assert (= temp559_45 #x0000000000000002))
(assert (= var7080385 temp559_45))
(assert (= var7080393 var7080385))
(model-add temp559_1 () (_ BitVec 64) #x0000000000000001)
(model-add ARGNAME_use_input_stats_NAMEEND () (_ BitVec 64) #x0000000000000001)




